25
    1     9     9
    2    19    19
    3    13    13
    4    12    12
    5    11    11
    6     9     9
    7    16    16
    8     9     9
    9     1     1
   10     7     7
   11     3     3
   12    10    10
   13    18    18
   14    15    15
   15    17    17
   16     5     5
   17    10    10
   18    12    12
   19     7     7
   20     4     4
   21    17    17
   22    20    20
   23     4     4
   24    20    20
   25    13    13
110
